GLPSOL: GLPK LP/MIP Solver, v4.52
Parameter(s) specified in the command line:
 --model utils_GLPK/modelos/MTAV_empate.mod --data utils_GLPK/datos/MTAV_pref_empate.dat
 --output utils_GLPK/soluciones/MTAV_asign.sol --log utils_GLPK/logs/ejecucion_secundaria.log
Reading model section from utils_GLPK/modelos/MTAV_empate.mod...
utils_GLPK/modelos/MTAV_empate.mod:38: warning: unexpected end of file; missing end statement inserted
38 lines were read
Reading data section from utils_GLPK/datos/MTAV_pref_empate.dat...
utils_GLPK/datos/MTAV_pref_empate.dat:33: warning: final NL missing before end of file
33 lines were read
Generating resultado...
Generating z_menorIgual...
Generating unicaAsignacionCoperativista_mayorIgual...
Generating unicaAsignacionCoperativista_menorIgual...
Generating unicaAsignacionCasa_mayorIgual...
Generating unicaAsignacionCasa_menorIgual...
Generating s_mayorIgual...
Generating s_menorIgual...
Model has been successfully generated
GLPK Integer Optimizer, v4.52
103 rows, 401 columns, 2821 non-zeros
401 integer variables, 400 of which are binary
Preprocessing...
102 rows, 401 columns, 2820 non-zeros
401 integer variables, 400 of which are binary
Scaling...
 A: min|aij| =  1.000e+00  max|aij| =  2.000e+01  ratio =  2.000e+01
GM: min|aij| =  4.729e-01  max|aij| =  2.115e+00  ratio =  4.472e+00
EQ: min|aij| =  2.236e-01  max|aij| =  1.000e+00  ratio =  4.472e+00
2N: min|aij| =  2.500e-01  max|aij| =  1.500e+00  ratio =  6.000e+00
Constructing initial basis...
Size of triangular part is 102
Solving LP relaxation...
GLPK Simplex Optimizer, v4.52
102 rows, 401 columns, 2820 non-zeros
      0: obj =   0.000000000e+00  infeas =  2.988e+01 (0)
*   140: obj =   9.000000000e+00  infeas =  5.533e-15 (0)
*   159: obj =   9.000000000e+00  infeas =  2.220e-16 (0)
OPTIMAL LP SOLUTION FOUND
Integer optimization begins...
+   159: mip =     not found yet >=              -inf        (1; 0)
+   172: >>>>>   9.000000000e+00 >=   9.000000000e+00 < 0.1% (3; 0)
+   172: mip =   9.000000000e+00 >=     tree is empty   0.0% (0; 5)
INTEGER OPTIMAL SOLUTION FOUND
Time used:   0.0 secs
Memory used: 1.1 Mb (1143802 bytes)
Writing MIP solution to `utils_GLPK/soluciones/MTAV_asign.sol'...
